NAME : Random
TYPE : TSP
DIMENSION : 15
EDGE_WEIGHT_TYPE : EUC_2D
NODE_COORD_SECTION
1 368 308
2 51 452
3 308 259
4 111 435
5 379 210
6 457 310
7 143 147
8 16 376
9 461 451
10 403 317
11 267 89
12 273 403
13 207 275
14 335 264
15 142 217
EOF
